p cnf 270 2830
1 2 3 4 5 6 7 8 9 0
10 11 12 13 14 15 16 17 18 0
19 20 21 22 23 24 25 26 27 0
28 29 30 31 32 33 34 35 36 0
37 38 39 40 41 42 43 44 45 0
46 47 48 49 50 51 52 53 54 0
55 56 57 58 59 60 61 62 63 0
64 65 66 67 68 69 70 71 72 0
73 74 75 76 77 78 79 80 81 0
82 83 84 85 86 87 88 89 90 0
91 92 93 94 95 96 97 98 99 0
100 101 102 103 104 105 106 107 108 0
109 110 111 112 113 114 115 116 117 0
118 119 120 121 122 123 124 125 126 0
127 128 129 130 131 132 133 134 135 0
136 137 138 139 140 141 142 143 144 0
145 146 147 148 149 150 151 152 153 0
154 155 156 157 158 159 160 161 162 0
163 164 165 166 167 168 169 170 171 0
172 173 174 175 176 177 178 179 180 0
181 182 183 184 185 186 187 188 189 0
190 191 192 193 194 195 196 197 198 0
199 200 201 202 203 204 205 206 207 0
208 209 210 211 212 213 214 215 216 0
217 218 219 220 221 222 223 224 225 0
226 227 228 229 230 231 232 233 234 0
235 236 237 238 239 240 241 242 243 0
244 245 246 247 248 249 250 251 252 0
253 254 255 256 257 258 259 260 261 0
262 263 264 265 266 267 268 269 270 0
-1 -2 0
-1 -3 0
-1 -4 0
-1 -5 0
-1 -6 0
-1 -7 0
-1 -8 0
-1 -9 0
-2 -3 0
-2 -4 0
-2 -5 0
-2 -6 0
-2 -7 0
-2 -8 0
-2 -9 0
-3 -4 0
-3 -5 0
-3 -6 0
-3 -7 0
-3 -8 0
-3 -9 0
-4 -5 0
-4 -6 0
-4 -7 0
-4 -8 0
-4 -9 0
-5 -6 0
-5 -7 0
-5 -8 0
-5 -9 0
-6 -7 0
-6 -8 0
-6 -9 0
-7 -8 0
-7 -9 0
-8 -9 0
-10 -11 0
-10 -12 0
-10 -13 0
-10 -14 0
-10 -15 0
-10 -16 0
-10 -17 0
-10 -18 0
-11 -12 0
-11 -13 0
-11 -14 0
-11 -15 0
-11 -16 0
-11 -17 0
-11 -18 0
-12 -13 0
-12 -14 0
-12 -15 0
-12 -16 0
-12 -17 0
-12 -18 0
-13 -14 0
-13 -15 0
-13 -16 0
-13 -17 0
-13 -18 0
-14 -15 0
-14 -16 0
-14 -17 0
-14 -18 0
-15 -16 0
-15 -17 0
-15 -18 0
-16 -17 0
-16 -18 0
-17 -18 0
-19 -20 0
-19 -21 0
-19 -22 0
-19 -23 0
-19 -24 0
-19 -25 0
-19 -26 0
-19 -27 0
-20 -21 0
-20 -22 0
-20 -23 0
-20 -24 0
-20 -25 0
-20 -26 0
-20 -27 0
-21 -22 0
-21 -23 0
-21 -24 0
-21 -25 0
-21 -26 0
-21 -27 0
-22 -23 0
-22 -24 0
-22 -25 0
-22 -26 0
-22 -27 0
-23 -24 0
-23 -25 0
-23 -26 0
-23 -27 0
-24 -25 0
-24 -26 0
-24 -27 0
-25 -26 0
-25 -27 0
-26 -27 0
-28 -29 0
-28 -30 0
-28 -31 0
-28 -32 0
-28 -33 0
-28 -34 0
-28 -35 0
-28 -36 0
-29 -30 0
-29 -31 0
-29 -32 0
-29 -33 0
-29 -34 0
-29 -35 0
-29 -36 0
-30 -31 0
-30 -32 0
-30 -33 0
-30 -34 0
-30 -35 0
-30 -36 0
-31 -32 0
-31 -33 0
-31 -34 0
-31 -35 0
-31 -36 0
-32 -33 0
-32 -34 0
-32 -35 0
-32 -36 0
-33 -34 0
-33 -35 0
-33 -36 0
-34 -35 0
-34 -36 0
-35 -36 0
-37 -38 0
-37 -39 0
-37 -40 0
-37 -41 0
-37 -42 0
-37 -43 0
-37 -44 0
-37 -45 0
-38 -39 0
-38 -40 0
-38 -41 0
-38 -42 0
-38 -43 0
-38 -44 0
-38 -45 0
-39 -40 0
-39 -41 0
-39 -42 0
-39 -43 0
-39 -44 0
-39 -45 0
-40 -41 0
-40 -42 0
-40 -43 0
-40 -44 0
-40 -45 0
-41 -42 0
-41 -43 0
-41 -44 0
-41 -45 0
-42 -43 0
-42 -44 0
-42 -45 0
-43 -44 0
-43 -45 0
-44 -45 0
-46 -47 0
-46 -48 0
-46 -49 0
-46 -50 0
-46 -51 0
-46 -52 0
-46 -53 0
-46 -54 0
-47 -48 0
-47 -49 0
-47 -50 0
-47 -51 0
-47 -52 0
-47 -53 0
-47 -54 0
-48 -49 0
-48 -50 0
-48 -51 0
-48 -52 0
-48 -53 0
-48 -54 0
-49 -50 0
-49 -51 0
-49 -52 0
-49 -53 0
-49 -54 0
-50 -51 0
-50 -52 0
-50 -53 0
-50 -54 0
-51 -52 0
-51 -53 0
-51 -54 0
-52 -53 0
-52 -54 0
-53 -54 0
-55 -56 0
-55 -57 0
-55 -58 0
-55 -59 0
-55 -60 0
-55 -61 0
-55 -62 0
-55 -63 0
-56 -57 0
-56 -58 0
-56 -59 0
-56 -60 0
-56 -61 0
-56 -62 0
-56 -63 0
-57 -58 0
-57 -59 0
-57 -60 0
-57 -61 0
-57 -62 0
-57 -63 0
-58 -59 0
-58 -60 0
-58 -61 0
-58 -62 0
-58 -63 0
-59 -60 0
-59 -61 0
-59 -62 0
-59 -63 0
-60 -61 0
-60 -62 0
-60 -63 0
-61 -62 0
-61 -63 0
-62 -63 0
-64 -65 0
-64 -66 0
-64 -67 0
-64 -68 0
-64 -69 0
-64 -70 0
-64 -71 0
-64 -72 0
-65 -66 0
-65 -67 0
-65 -68 0
-65 -69 0
-65 -70 0
-65 -71 0
-65 -72 0
-66 -67 0
-66 -68 0
-66 -69 0
-66 -70 0
-66 -71 0
-66 -72 0
-67 -68 0
-67 -69 0
-67 -70 0
-67 -71 0
-67 -72 0
-68 -69 0
-68 -70 0
-68 -71 0
-68 -72 0
-69 -70 0
-69 -71 0
-69 -72 0
-70 -71 0
-70 -72 0
-71 -72 0
-73 -74 0
-73 -75 0
-73 -76 0
-73 -77 0
-73 -78 0
-73 -79 0
-73 -80 0
-73 -81 0
-74 -75 0
-74 -76 0
-74 -77 0
-74 -78 0
-74 -79 0
-74 -80 0
-74 -81 0
-75 -76 0
-75 -77 0
-75 -78 0
-75 -79 0
-75 -80 0
-75 -81 0
-76 -77 0
-76 -78 0
-76 -79 0
-76 -80 0
-76 -81 0
-77 -78 0
-77 -79 0
-77 -80 0
-77 -81 0
-78 -79 0
-78 -80 0
-78 -81 0
-79 -80 0
-79 -81 0
-80 -81 0
-82 -83 0
-82 -84 0
-82 -85 0
-82 -86 0
-82 -87 0
-82 -88 0
-82 -89 0
-82 -90 0
-83 -84 0
-83 -85 0
-83 -86 0
-83 -87 0
-83 -88 0
-83 -89 0
-83 -90 0
-84 -85 0
-84 -86 0
-84 -87 0
-84 -88 0
-84 -89 0
-84 -90 0
-85 -86 0
-85 -87 0
-85 -88 0
-85 -89 0
-85 -90 0
-86 -87 0
-86 -88 0
-86 -89 0
-86 -90 0
-87 -88 0
-87 -89 0
-87 -90 0
-88 -89 0
-88 -90 0
-89 -90 0
-91 -92 0
-91 -93 0
-91 -94 0
-91 -95 0
-91 -96 0
-91 -97 0
-91 -98 0
-91 -99 0
-92 -93 0
-92 -94 0
-92 -95 0
-92 -96 0
-92 -97 0
-92 -98 0
-92 -99 0
-93 -94 0
-93 -95 0
-93 -96 0
-93 -97 0
-93 -98 0
-93 -99 0
-94 -95 0
-94 -96 0
-94 -97 0
-94 -98 0
-94 -99 0
-95 -96 0
-95 -97 0
-95 -98 0
-95 -99 0
-96 -97 0
-96 -98 0
-96 -99 0
-97 -98 0
-97 -99 0
-98 -99 0
-100 -101 0
-100 -102 0
-100 -103 0
-100 -104 0
-100 -105 0
-100 -106 0
-100 -107 0
-100 -108 0
-101 -102 0
-101 -103 0
-101 -104 0
-101 -105 0
-101 -106 0
-101 -107 0
-101 -108 0
-102 -103 0
-102 -104 0
-102 -105 0
-102 -106 0
-102 -107 0
-102 -108 0
-103 -104 0
-103 -105 0
-103 -106 0
-103 -107 0
-103 -108 0
-104 -105 0
-104 -106 0
-104 -107 0
-104 -108 0
-105 -106 0
-105 -107 0
-105 -108 0
-106 -107 0
-106 -108 0
-107 -108 0
-109 -110 0
-109 -111 0
-109 -112 0
-109 -113 0
-109 -114 0
-109 -115 0
-109 -116 0
-109 -117 0
-110 -111 0
-110 -112 0
-110 -113 0
-110 -114 0
-110 -115 0
-110 -116 0
-110 -117 0
-111 -112 0
-111 -113 0
-111 -114 0
-111 -115 0
-111 -116 0
-111 -117 0
-112 -113 0
-112 -114 0
-112 -115 0
-112 -116 0
-112 -117 0
-113 -114 0
-113 -115 0
-113 -116 0
-113 -117 0
-114 -115 0
-114 -116 0
-114 -117 0
-115 -116 0
-115 -117 0
-116 -117 0
-118 -119 0
-118 -120 0
-118 -121 0
-118 -122 0
-118 -123 0
-118 -124 0
-118 -125 0
-118 -126 0
-119 -120 0
-119 -121 0
-119 -122 0
-119 -123 0
-119 -124 0
-119 -125 0
-119 -126 0
-120 -121 0
-120 -122 0
-120 -123 0
-120 -124 0
-120 -125 0
-120 -126 0
-121 -122 0
-121 -123 0
-121 -124 0
-121 -125 0
-121 -126 0
-122 -123 0
-122 -124 0
-122 -125 0
-122 -126 0
-123 -124 0
-123 -125 0
-123 -126 0
-124 -125 0
-124 -126 0
-125 -126 0
-127 -128 0
-127 -129 0
-127 -130 0
-127 -131 0
-127 -132 0
-127 -133 0
-127 -134 0
-127 -135 0
-128 -129 0
-128 -130 0
-128 -131 0
-128 -132 0
-128 -133 0
-128 -134 0
-128 -135 0
-129 -130 0
-129 -131 0
-129 -132 0
-129 -133 0
-129 -134 0
-129 -135 0
-130 -131 0
-130 -132 0
-130 -133 0
-130 -134 0
-130 -135 0
-131 -132 0
-131 -133 0
-131 -134 0
-131 -135 0
-132 -133 0
-132 -134 0
-132 -135 0
-133 -134 0
-133 -135 0
-134 -135 0
-136 -137 0
-136 -138 0
-136 -139 0
-136 -140 0
-136 -141 0
-136 -142 0
-136 -143 0
-136 -144 0
-137 -138 0
-137 -139 0
-137 -140 0
-137 -141 0
-137 -142 0
-137 -143 0
-137 -144 0
-138 -139 0
-138 -140 0
-138 -141 0
-138 -142 0
-138 -143 0
-138 -144 0
-139 -140 0
-139 -141 0
-139 -142 0
-139 -143 0
-139 -144 0
-140 -141 0
-140 -142 0
-140 -143 0
-140 -144 0
-141 -142 0
-141 -143 0
-141 -144 0
-142 -143 0
-142 -144 0
-143 -144 0
-145 -146 0
-145 -147 0
-145 -148 0
-145 -149 0
-145 -150 0
-145 -151 0
-145 -152 0
-145 -153 0
-146 -147 0
-146 -148 0
-146 -149 0
-146 -150 0
-146 -151 0
-146 -152 0
-146 -153 0
-147 -148 0
-147 -149 0
-147 -150 0
-147 -151 0
-147 -152 0
-147 -153 0
-148 -149 0
-148 -150 0
-148 -151 0
-148 -152 0
-148 -153 0
-149 -150 0
-149 -151 0
-149 -152 0
-149 -153 0
-150 -151 0
-150 -152 0
-150 -153 0
-151 -152 0
-151 -153 0
-152 -153 0
-154 -155 0
-154 -156 0
-154 -157 0
-154 -158 0
-154 -159 0
-154 -160 0
-154 -161 0
-154 -162 0
-155 -156 0
-155 -157 0
-155 -158 0
-155 -159 0
-155 -160 0
-155 -161 0
-155 -162 0
-156 -157 0
-156 -158 0
-156 -159 0
-156 -160 0
-156 -161 0
-156 -162 0
-157 -158 0
-157 -159 0
-157 -160 0
-157 -161 0
-157 -162 0
-158 -159 0
-158 -160 0
-158 -161 0
-158 -162 0
-159 -160 0
-159 -161 0
-159 -162 0
-160 -161 0
-160 -162 0
-161 -162 0
-163 -164 0
-163 -165 0
-163 -166 0
-163 -167 0
-163 -168 0
-163 -169 0
-163 -170 0
-163 -171 0
-164 -165 0
-164 -166 0
-164 -167 0
-164 -168 0
-164 -169 0
-164 -170 0
-164 -171 0
-165 -166 0
-165 -167 0
-165 -168 0
-165 -169 0
-165 -170 0
-165 -171 0
-166 -167 0
-166 -168 0
-166 -169 0
-166 -170 0
-166 -171 0
-167 -168 0
-167 -169 0
-167 -170 0
-167 -171 0
-168 -169 0
-168 -170 0
-168 -171 0
-169 -170 0
-169 -171 0
-170 -171 0
-172 -173 0
-172 -174 0
-172 -175 0
-172 -176 0
-172 -177 0
-172 -178 0
-172 -179 0
-172 -180 0
-173 -174 0
-173 -175 0
-173 -176 0
-173 -177 0
-173 -178 0
-173 -179 0
-173 -180 0
-174 -175 0
-174 -176 0
-174 -177 0
-174 -178 0
-174 -179 0
-174 -180 0
-175 -176 0
-175 -177 0
-175 -178 0
-175 -179 0
-175 -180 0
-176 -177 0
-176 -178 0
-176 -179 0
-176 -180 0
-177 -178 0
-177 -179 0
-177 -180 0
-178 -179 0
-178 -180 0
-179 -180 0
-181 -182 0
-181 -183 0
-181 -184 0
-181 -185 0
-181 -186 0
-181 -187 0
-181 -188 0
-181 -189 0
-182 -183 0
-182 -184 0
-182 -185 0
-182 -186 0
-182 -187 0
-182 -188 0
-182 -189 0
-183 -184 0
-183 -185 0
-183 -186 0
-183 -187 0
-183 -188 0
-183 -189 0
-184 -185 0
-184 -186 0
-184 -187 0
-184 -188 0
-184 -189 0
-185 -186 0
-185 -187 0
-185 -188 0
-185 -189 0
-186 -187 0
-186 -188 0
-186 -189 0
-187 -188 0
-187 -189 0
-188 -189 0
-190 -191 0
-190 -192 0
-190 -193 0
-190 -194 0
-190 -195 0
-190 -196 0
-190 -197 0
-190 -198 0
-191 -192 0
-191 -193 0
-191 -194 0
-191 -195 0
-191 -196 0
-191 -197 0
-191 -198 0
-192 -193 0
-192 -194 0
-192 -195 0
-192 -196 0
-192 -197 0
-192 -198 0
-193 -194 0
-193 -195 0
-193 -196 0
-193 -197 0
-193 -198 0
-194 -195 0
-194 -196 0
-194 -197 0
-194 -198 0
-195 -196 0
-195 -197 0
-195 -198 0
-196 -197 0
-196 -198 0
-197 -198 0
-199 -200 0
-199 -201 0
-199 -202 0
-199 -203 0
-199 -204 0
-199 -205 0
-199 -206 0
-199 -207 0
-200 -201 0
-200 -202 0
-200 -203 0
-200 -204 0
-200 -205 0
-200 -206 0
-200 -207 0
-201 -202 0
-201 -203 0
-201 -204 0
-201 -205 0
-201 -206 0
-201 -207 0
-202 -203 0
-202 -204 0
-202 -205 0
-202 -206 0
-202 -207 0
-203 -204 0
-203 -205 0
-203 -206 0
-203 -207 0
-204 -205 0
-204 -206 0
-204 -207 0
-205 -206 0
-205 -207 0
-206 -207 0
-208 -209 0
-208 -210 0
-208 -211 0
-208 -212 0
-208 -213 0
-208 -214 0
-208 -215 0
-208 -216 0
-209 -210 0
-209 -211 0
-209 -212 0
-209 -213 0
-209 -214 0
-209 -215 0
-209 -216 0
-210 -211 0
-210 -212 0
-210 -213 0
-210 -214 0
-210 -215 0
-210 -216 0
-211 -212 0
-211 -213 0
-211 -214 0
-211 -215 0
-211 -216 0
-212 -213 0
-212 -214 0
-212 -215 0
-212 -216 0
-213 -214 0
-213 -215 0
-213 -216 0
-214 -215 0
-214 -216 0
-215 -216 0
-217 -218 0
-217 -219 0
-217 -220 0
-217 -221 0
-217 -222 0
-217 -223 0
-217 -224 0
-217 -225 0
-218 -219 0
-218 -220 0
-218 -221 0
-218 -222 0
-218 -223 0
-218 -224 0
-218 -225 0
-219 -220 0
-219 -221 0
-219 -222 0
-219 -223 0
-219 -224 0
-219 -225 0
-220 -221 0
-220 -222 0
-220 -223 0
-220 -224 0
-220 -225 0
-221 -222 0
-221 -223 0
-221 -224 0
-221 -225 0
-222 -223 0
-222 -224 0
-222 -225 0
-223 -224 0
-223 -225 0
-224 -225 0
-226 -227 0
-226 -228 0
-226 -229 0
-226 -230 0
-226 -231 0
-226 -232 0
-226 -233 0
-226 -234 0
-227 -228 0
-227 -229 0
-227 -230 0
-227 -231 0
-227 -232 0
-227 -233 0
-227 -234 0
-228 -229 0
-228 -230 0
-228 -231 0
-228 -232 0
-228 -233 0
-228 -234 0
-229 -230 0
-229 -231 0
-229 -232 0
-229 -233 0
-229 -234 0
-230 -231 0
-230 -232 0
-230 -233 0
-230 -234 0
-231 -232 0
-231 -233 0
-231 -234 0
-232 -233 0
-232 -234 0
-233 -234 0
-235 -236 0
-235 -237 0
-235 -238 0
-235 -239 0
-235 -240 0
-235 -241 0
-235 -242 0
-235 -243 0
-236 -237 0
-236 -238 0
-236 -239 0
-236 -240 0
-236 -241 0
-236 -242 0
-236 -243 0
-237 -238 0
-237 -239 0
-237 -240 0
-237 -241 0
-237 -242 0
-237 -243 0
-238 -239 0
-238 -240 0
-238 -241 0
-238 -242 0
-238 -243 0
-239 -240 0
-239 -241 0
-239 -242 0
-239 -243 0
-240 -241 0
-240 -242 0
-240 -243 0
-241 -242 0
-241 -243 0
-242 -243 0
-244 -245 0
-244 -246 0
-244 -247 0
-244 -248 0
-244 -249 0
-244 -250 0
-244 -251 0
-244 -252 0
-245 -246 0
-245 -247 0
-245 -248 0
-245 -249 0
-245 -250 0
-245 -251 0
-245 -252 0
-246 -247 0
-246 -248 0
-246 -249 0
-246 -250 0
-246 -251 0
-246 -252 0
-247 -248 0
-247 -249 0
-247 -250 0
-247 -251 0
-247 -252 0
-248 -249 0
-248 -250 0
-248 -251 0
-248 -252 0
-249 -250 0
-249 -251 0
-249 -252 0
-250 -251 0
-250 -252 0
-251 -252 0
-253 -254 0
-253 -255 0
-253 -256 0
-253 -257 0
-253 -258 0
-253 -259 0
-253 -260 0
-253 -261 0
-254 -255 0
-254 -256 0
-254 -257 0
-254 -258 0
-254 -259 0
-254 -260 0
-254 -261 0
-255 -256 0
-255 -257 0
-255 -258 0
-255 -259 0
-255 -260 0
-255 -261 0
-256 -257 0
-256 -258 0
-256 -259 0
-256 -260 0
-256 -261 0
-257 -258 0
-257 -259 0
-257 -260 0
-257 -261 0
-258 -259 0
-258 -260 0
-258 -261 0
-259 -260 0
-259 -261 0
-260 -261 0
-262 -263 0
-262 -264 0
-262 -265 0
-262 -266 0
-262 -267 0
-262 -268 0
-262 -269 0
-262 -270 0
-263 -264 0
-263 -265 0
-263 -266 0
-263 -267 0
-263 -268 0
-263 -269 0
-263 -270 0
-264 -265 0
-264 -266 0
-264 -267 0
-264 -268 0
-264 -269 0
-264 -270 0
-265 -266 0
-265 -267 0
-265 -268 0
-265 -269 0
-265 -270 0
-266 -267 0
-266 -268 0
-266 -269 0
-266 -270 0
-267 -268 0
-267 -269 0
-267 -270 0
-268 -269 0
-268 -270 0
-269 -270 0
-1 -214 0
-8 -216 0
-6 -208 0
-8 -212 0
-1 -208 0
-5 -214 0
-9 -216 0
-4 -215 0
-8 -210 0
-2 -213 0
-6 -214 0
-9 -209 0
-3 -214 0
-1 -213 0
-4 -214 0
-2 -214 0
-8 -213 0
-2 -216 0
-4 -213 0
-9 -210 0
-9 -215 0
-2 -212 0
-7 -215 0
-7 -212 0
-6 -215 0
-3 -209 0
-3 -216 0
-3 -215 0
-4 -209 0
-5 -212 0
-3 -212 0
-7 -214 0
-6 -212 0
-4 -212 0
-9 -212 0
-9 -214 0
-4 -210 0
-3 -210 0
-8 -214 0
-3 -213 0
-1 -259 0
-6 -260 0
-6 -255 0
-1 -256 0
-4 -255 0
-5 -260 0
-9 -253 0
-6 -257 0
-1 -253 0
-7 -258 0
-4 -256 0
-8 -256 0
-8 -257 0
-7 -255 0
-5 -261 0
-3 -254 0
-9 -257 0
-2 -255 0
-9 -258 0
-7 -256 0
-9 -260 0
-2 -259 0
-5 -254 0
-7 -259 0
-8 -260 0
-4 -253 0
-8 -259 0
-2 -258 0
-1 -261 0
-4 -261 0
-5 -259 0
-5 -257 0
-7 -254 0
-6 -256 0
-8 -254 0
-3 -256 0
-4 -254 0
-8 -253 0
-2 -260 0
-3 -259 0
-13 -62 0
-14 -56 0
-12 -55 0
-12 -57 0
-12 -58 0
-14 -55 0
-11 -57 0
-11 -61 0
-17 -59 0
-15 -62 0
-17 -63 0
-11 -63 0
-10 -60 0
-18 -57 0
-15 -60 0
-14 -61 0
-14 -60 0
-18 -58 0
-15 -56 0
-15 -55 0
-13 -56 0
-11 -60 0
-12 -62 0
-10 -62 0
-12 -59 0
-11 -56 0
-17 -62 0
-18 -62 0
-10 -55 0
-17 -56 0
-13 -55 0
-17 -60 0
-12 -56 0
-12 -61 0
-10 -63 0
-13 -63 0
-15 -63 0
-11 -62 0
-10 -57 0
-15 -59 0
-26 -112 0
-21 -112 0
-25 -113 0
-22 -115 0
-20 -117 0
-19 -115 0
-27 -110 0
-27 -111 0
-24 -117 0
-19 -117 0
-23 -116 0
-23 -112 0
-27 -116 0
-20 -113 0
-21 -116 0
-25 -112 0
-22 -116 0
-21 -114 0
-23 -113 0
-27 -115 0
-26 -115 0
-25 -110 0
-19 -113 0
-20 -110 0
-21 -115 0
-27 -114 0
-19 -110 0
-22 -110 0
-22 -111 0
-20 -116 0
-21 -117 0
-25 -116 0
-26 -111 0
-21 -113 0
-26 -116 0
-20 -114 0
-22 -117 0
-24 -110 0
-22 -114 0
-20 -111 0
-35 -84 0
-33 -84 0
-29 -84 0
-30 -84 0
-34 -83 0
-33 -88 0
-28 -90 0
-34 -87 0
-35 -90 0
-31 -90 0
-36 -85 0
-34 -90 0
-33 -85 0
-34 -86 0
-31 -88 0
-30 -86 0
-35 -89 0
-33 -89 0
-34 -82 0
-29 -90 0
-29 -85 0
-34 -89 0
-28 -88 0
-29 -83 0
-28 -87 0
-33 -83 0
-30 -88 0
-29 -87 0
-28 -82 0
-32 -82 0
-33 -82 0
-35 -83 0
-30 -85 0
-31 -89 0
-32 -88 0
-32 -87 0
-29 -86 0
-33 -90 0
-31 -86 0
-28 -86 0
-28 -129 0
-32 -135 0
-29 -127 0
-28 -132 0
-32 -130 0
-29 -132 0
-33 -135 0
-32 -128 0
-34 -128 0
-33 -128 0
-32 -133 0
-30 -134 0
-33 -127 0
-32 -132 0
-34 -129 0
-29 -134 0
-33 -129 0
-30 -133 0
-36 -132 0
-29 -128 0
-30 -135 0
-32 -131 0
-31 -132 0
-28 -128 0
-28 -135 0
-30 -130 0
-34 -130 0
-30 -127 0
-35 -130 0
-31 -134 0
-32 -129 0
-31 -133 0
-36 -134 0
-35 -135 0
-36 -131 0
-29 -135 0
-31 -127 0
-31 -129 0
-36 -133 0
-31 -131 0
-34 -154 0
-34 -161 0
-35 -157 0
-32 -154 0
-35 -161 0
-30 -157 0
-28 -157 0
-28 -161 0
-36 -162 0
-35 -159 0
-28 -162 0
-33 -162 0
-33 -158 0
-36 -157 0
-29 -158 0
-34 -159 0
-35 -154 0
-32 -162 0
-29 -156 0
-31 -156 0
-36 -154 0
-36 -160 0
-31 -160 0
-29 -154 0
-31 -154 0
-32 -156 0
-35 -160 0
-32 -157 0
-33 -157 0
-31 -158 0
-35 -156 0
-28 -159 0
-29 -160 0
-33 -161 0
-31 -155 0
-32 -159 0
-34 -160 0
-34 -155 0
-31 -161 0
-29 -162 0
-33 -201 0
-34 -202 0
-35 -206 0
-31 -205 0
-32 -202 0
-36 -206 0
-28 -200 0
-35 -200 0
-33 -199 0
-32 -199 0
-29 -206 0
-31 -207 0
-30 -200 0
-36 -199 0
-29 -199 0
-30 -201 0
-30 -199 0
-34 -206 0
-33 -204 0
-31 -206 0
-34 -200 0
-32 -204 0
-36 -200 0
-34 -207 0
-33 -200 0
-36 -204 0
-36 -202 0
-31 -201 0
-31 -202 0
-32 -201 0
-36 -207 0
-35 -204 0
-30 -203 0
-32 -200 0
-29 -201 0
-31 -203 0
-31 -204 0
-30 -207 0
-31 -199 0
-33 -202 0
-36 -208 0
-31 -212 0
-29 -213 0
-28 -211 0
-32 -208 0
-32 -214 0
-36 -211 0
-31 -213 0
-34 -208 0
-32 -211 0
-33 -216 0
-28 -208 0
-28 -209 0
-31 -216 0
-31 -210 0
-35 -209 0
-36 -212 0
-31 -208 0
-33 -209 0
-32 -209 0
-34 -211 0
-35 -216 0
-28 -215 0
-31 -209 0
-34 -210 0
-29 -215 0
-33 -211 0
-34 -213 0
-28 -213 0
-35 -214 0
-30 -210 0
-28 -214 0
-30 -209 0
-29 -211 0
-35 -213 0
-32 -212 0
-33 -213 0
-36 -215 0
-35 -208 0
-32 -216 0
-42 -151 0
-43 -152 0
-37 -152 0
-38 -153 0
-44 -146 0
-37 -147 0
-39 -146 0
-39 -147 0
-37 -146 0
-38 -152 0
-39 -151 0
-40 -146 0
-38 -149 0
-38 -145 0
-38 -147 0
-39 -153 0
-43 -147 0
-38 -146 0
-41 -146 0
-42 -150 0
-44 -148 0
-44 -151 0
-39 -149 0
-44 -149 0
-40 -151 0
-42 -146 0
-45 -146 0
-45 -147 0
-45 -153 0
-44 -153 0
-42 -147 0
-39 -148 0
-39 -145 0
-44 -152 0
-37 -148 0
-44 -150 0
-42 -152 0
-39 -150 0
-40 -150 0
-45 -149 0
-43 -154 0
-41 -158 0
-42 -159 0
-40 -159 0
-41 -156 0
-42 -161 0
-40 -156 0
-39 -161 0
-39 -154 0
-40 -157 0
-39 -159 0
-37 -156 0
-37 -160 0
-45 -155 0
-42 -154 0
-37 -162 0
-38 -157 0
-43 -156 0
-43 -162 0
-45 -162 0
-38 -162 0
-43 -159 0
-37 -161 0
-38 -160 0
-44 -159 0
-45 -157 0
-41 -154 0
-40 -160 0
-45 -156 0
-43 -160 0
-38 -156 0
-38 -161 0
-42 -162 0
-44 -160 0
-44 -157 0
-38 -155 0
-44 -162 0
-37 -158 0
-39 -160 0
-43 -161 0
-37 -241 0
-41 -243 0
-39 -236 0
-40 -235 0
-45 -243 0
-42 -243 0
-40 -239 0
-42 -241 0
-44 -237 0
-43 -238 0
-45 -235 0
-41 -242 0
-45 -236 0
-41 -235 0
-42 -240 0
-39 -242 0
-43 -236 0
-43 -243 0
-39 -237 0
-45 -241 0
-44 -236 0
-38 -243 0
-44 -239 0
-41 -241 0
-43 -239 0
-45 -240 0
-37 -243 0
-38 -242 0
-42 -239 0
-40 -243 0
-44 -238 0
-42 -242 0
-42 -238 0
-41 -237 0
-39 -241 0
-44 -241 0
-41 -240 0
-45 -242 0
-45 -237 0
-44 -243 0
-45 -246 0
-45 -248 0
-37 -252 0
-41 -249 0
-44 -246 0
-43 -248 0
-37 -246 0
-40 -250 0
-38 -247 0
-45 -250 0
-41 -251 0
-39 -247 0
-39 -246 0
-44 -247 0
-44 -252 0
-38 -249 0
-45 -252 0
-38 -244 0
-42 -249 0
-44 -250 0
-44 -249 0
-42 -247 0
-37 -248 0
-40 -251 0
-37 -244 0
-41 -246 0
-44 -248 0
-41 -252 0
-39 -250 0
-43 -249 0
-41 -247 0
-45 -245 0
-42 -246 0
-42 -251 0
-37 -249 0
-37 -245 0
-42 -248 0
-38 -248 0
-41 -250 0
-41 -244 0
-54 -91 0
-48 -95 0
-53 -95 0
-46 -91 0
-47 -97 0
-54 -96 0
-52 -93 0
-50 -97 0
-51 -93 0
-54 -93 0
-53 -93 0
-49 -93 0
-53 -92 0
-53 -98 0
-49 -92 0
-48 -98 0
-50 -94 0
-54 -99 0
-49 -96 0
-51 -95 0
-49 -95 0
-52 -95 0
-53 -97 0
-47 -91 0
-46 -99 0
-53 -91 0
-49 -94 0
-54 -98 0
-49 -99 0
-48 -97 0
-46 -92 0
-46 -95 0
-52 -92 0
-46 -98 0
-53 -94 0
-46 -96 0
-54 -95 0
-52 -96 0
-47 -99 0
-50 -95 0
-46 -229 0
-54 -233 0
-51 -232 0
-52 -228 0
-54 -229 0
-52 -233 0
-48 -231 0
-46 -230 0
-47 -234 0
-53 -232 0
-48 -232 0
-47 -231 0
-52 -229 0
-49 -228 0
-50 -228 0
-50 -227 0
-46 -231 0
-54 -228 0
-53 -231 0
-49 -227 0
-52 -234 0
-51 -234 0
-53 -230 0
-51 -228 0
-48 -226 0
-54 -227 0
-47 -232 0
-52 -227 0
-54 -230 0
-47 -226 0
-54 -226 0
-54 -231 0
-49 -232 0
-51 -233 0
-48 -234 0
-48 -230 0
-46 -232 0
-46 -226 0
-48 -229 0
-54 -234 0
-56 -239 0
-60 -239 0
-59 -237 0
-58 -239 0
-62 -243 0
-55 -240 0
-63 -243 0
-61 -235 0
-56 -236 0
-55 -237 0
-58 -240 0
-61 -237 0
-59 -235 0
-55 -238 0
-60 -242 0
-59 -243 0
-61 -239 0
-60 -238 0
-61 -236 0
-62 -235 0
-56 -237 0
-62 -236 0
-57 -237 0
-62 -241 0
-58 -237 0
-60 -240 0
-59 -241 0
-56 -238 0
-59 -242 0
-57 -235 0
-63 -239 0
-57 -236 0
-63 -236 0
-63 -237 0
-61 -242 0
-56 -240 0
-63 -240 0
-60 -241 0
-57 -238 0
-58 -242 0
-72 -137 0
-72 -141 0
-67 -137 0
-67 -141 0
-72 -138 0
-65 -142 0
-66 -141 0
-68 -141 0
-67 -139 0
-64 -137 0
-70 -136 0
-67 -140 0
-65 -137 0
-69 -139 0
-65 -140 0
-64 -144 0
-69 -143 0
-68 -139 0
-70 -142 0
-70 -137 0
-68 -136 0
-66 -143 0
-68 -138 0
-72 -143 0
-66 -142 0
-65 -136 0
-64 -140 0
-66 -144 0
-69 -144 0
-64 -141 0
-67 -144 0
-70 -141 0
-67 -143 0
-65 -139 0
-65 -138 0
-64 -142 0
-64 -143 0
-67 -142 0
-69 -142 0
-69 -140 0
-64 -145 0
-65 -149 0
-65 -152 0
-66 -145 0
-71 -151 0
-67 -150 0
-66 -150 0
-68 -151 0
-71 -149 0
-65 -145 0
-72 -150 0
-69 -152 0
-64 -152 0
-65 -151 0
-68 -145 0
-72 -145 0
-67 -149 0
-66 -147 0
-67 -146 0
-72 -151 0
-64 -146 0
-72 -147 0
-69 -148 0
-68 -150 0
-64 -151 0
-69 -146 0
-72 -148 0
-71 -147 0
-68 -146 0
-72 -152 0
-68 -147 0
-67 -148 0
-66 -153 0
-66 -151 0
-68 -148 0
-65 -147 0
-71 -152 0
-70 -152 0
-66 -152 0
-68 -149 0
-71 -192 0
-72 -191 0
-67 -198 0
-66 -190 0
-64 -198 0
-66 -193 0
-70 -197 0
-67 -194 0
-70 -195 0
-67 -195 0
-66 -194 0
-70 -198 0
-65 -198 0
-67 -190 0
-64 -190 0
-69 -190 0
-70 -191 0
-65 -191 0
-67 -192 0
-68 -193 0
-68 -192 0
-70 -194 0
-65 -194 0
-65 -192 0
-71 -194 0
-72 -193 0
-66 -192 0
-65 -195 0
-69 -194 0
-66 -196 0
-69 -191 0
-68 -198 0
-68 -190 0
-72 -195 0
-66 -197 0
-65 -193 0
-66 -191 0
-66 -195 0
-72 -196 0
-64 -192 0
-73 -233 0
-80 -229 0
-75 -231 0
-73 -226 0
-74 -233 0
-80 -231 0
-76 -229 0
-74 -228 0
-79 -228 0
-80 -228 0
-79 -232 0
-81 -231 0
-77 -228 0
-74 -230 0
-81 -229 0
-79 -227 0
-78 -231 0
-73 -232 0
-77 -232 0
-77 -229 0
-76 -230 0
-75 -227 0
-81 -233 0
-75 -228 0
-79 -231 0
-81 -232 0
-77 -233 0
-76 -232 0
-73 -227 0
-80 -230 0
-74 -226 0
-81 -226 0
-79 -229 0
-78 -230 0
-74 -234 0
-76 -228 0
-77 -231 0
-74 -227 0
-78 -227 0
-77 -230 0
-85 -149 0
-89 -145 0
-85 -148 0
-86 -152 0
-82 -153 0
-90 -150 0
-90 -151 0
-86 -145 0
-89 -149 0
-87 -150 0
-85 -150 0
-83 -147 0
-89 -147 0
-88 -148 0
-89 -150 0
-85 -145 0
-82 -145 0
-90 -153 0
-83 -152 0
-86 -153 0
-83 -149 0
-89 -148 0
-82 -149 0
-90 -149 0
-86 -149 0
-83 -153 0
-84 -147 0
-87 -152 0
-88 -146 0
-84 -152 0
-88 -150 0
-86 -150 0
-83 -151 0
-82 -147 0
-83 -146 0
-87 -147 0
-85 -151 0
-85 -147 0
-87 -145 0
-85 -153 0
-84 -190 0
-86 -194 0
-90 -196 0
-82 -198 0
-87 -194 0
-90 -197 0
-87 -192 0
-88 -196 0
-83 -192 0
-89 -190 0
-90 -192 0
-82 -196 0
-83 -197 0
-84 -192 0
-90 -198 0
-85 -191 0
-82 -194 0
-87 -197 0
-87 -191 0
-82 -195 0
-87 -198 0
-84 -191 0
-89 -194 0
-88 -198 0
-83 -193 0
-83 -195 0
-90 -194 0
-84 -194 0
-83 -196 0
-88 -194 0
-84 -195 0
-90 -190 0
-88 -192 0
-82 -193 0
-87 -193 0
-85 -195 0
-86 -192 0
-86 -196 0
-86 -197 0
-89 -192 0
-95 -119 0
-98 -124 0
-91 -121 0
-95 -123 0
-94 -119 0
-91 -126 0
-98 -123 0
-97 -118 0
-92 -120 0
-98 -126 0
-92 -121 0
-92 -122 0
-96 -118 0
-93 -120 0
-95 -121 0
-94 -123 0
-97 -120 0
-91 -125 0
-96 -119 0
-99 -118 0
-91 -118 0
-99 -123 0
-92 -118 0
-98 -120 0
-93 -122 0
-94 -118 0
-93 -119 0
-95 -118 0
-92 -125 0
-97 -126 0
-91 -124 0
-92 -119 0
-99 -125 0
-93 -124 0
-97 -124 0
-99 -121 0
-96 -121 0
-95 -126 0
-94 -120 0
-99 -124 0
-96 -207 0
-99 -204 0
-96 -205 0
-96 -204 0
-96 -206 0
-91 -203 0
-97 -199 0
-94 -206 0
-93 -204 0
-97 -206 0
-92 -200 0
-93 -200 0
-98 -206 0
-95 -205 0
-94 -205 0
-93 -201 0
-98 -204 0
-93 -203 0
-97 -201 0
-98 -200 0
-96 -203 0
-96 -199 0
-95 -204 0
-94 -200 0
-92 -199 0
-94 -199 0
-94 -204 0
-97 -202 0
-91 -202 0
-99 -207 0
-92 -202 0
-95 -203 0
-93 -206 0
-99 -199 0
-95 -207 0
-94 -207 0
-95 -200 0
-97 -207 0
-92 -204 0
-97 -205 0
-92 -228 0
-93 -229 0
-93 -232 0
-92 -234 0
-95 -232 0
-92 -226 0
-91 -230 0
-96 -231 0
-91 -234 0
-94 -230 0
-99 -234 0
-95 -234 0
-95 -229 0
-96 -229 0
-94 -233 0
-91 -231 0
-98 -234 0
-99 -232 0
-96 -226 0
-95 -226 0
-98 -227 0
-91 -227 0
-96 -228 0
-99 -228 0
-94 -232 0
-99 -226 0
-96 -227 0
-97 -229 0
-97 -234 0
-97 -231 0
-95 -233 0
-99 -230 0
-91 -226 0
-94 -234 0
-91 -233 0
-94 -231 0
-92 -231 0
-92 -232 0
-96 -230 0
-95 -231 0
-96 -261 0
-97 -258 0
-92 -254 0
-99 -258 0
-94 -261 0
-98 -255 0
-91 -254 0
-96 -255 0
-97 -255 0
-97 -254 0
-96 -257 0
-95 -260 0
-93 -254 0
-92 -258 0
-99 -259 0
-91 -257 0
-99 -260 0
-96 -256 0
-91 -258 0
-98 -261 0
-98 -253 0
-95 -261 0
-92 -253 0
-98 -256 0
-99 -255 0
-95 -258 0
-98 -258 0
-97 -256 0
-91 -253 0
-92 -257 0
-94 -254 0
-91 -259 0
-98 -259 0
-96 -259 0
-92 -261 0
-99 -254 0
-97 -260 0
-94 -259 0
-91 -260 0
-97 -261 0
-103 -134 0
-107 -131 0
-104 -127 0
-104 -129 0
-106 -135 0
-101 -135 0
-106 -129 0
-103 -132 0
-101 -133 0
-106 -132 0
-105 -134 0
-101 -131 0
-107 -130 0
-100 -129 0
-103 -133 0
-102 -135 0
-104 -133 0
-100 -135 0
-103 -131 0
-105 -129 0
-106 -134 0
-102 -131 0
-103 -135 0
-102 -128 0
-108 -134 0
-105 -133 0
-108 -131 0
-101 -134 0
-101 -130 0
-107 -127 0
-102 -133 0
-103 -127 0
-100 -132 0
-108 -128 0
-101 -132 0
-104 -128 0
-100 -128 0
-104 -131 0
-108 -132 0
-101 -127 0
-104 -170 0
-106 -166 0
-105 -168 0
-104 -164 0
-108 -167 0
-106 -164 0
-104 -163 0
-106 -169 0
-106 -165 0
-101 -169 0
-107 -169 0
-103 -171 0
-105 -166 0
-102 -163 0
-103 -170 0
-104 -171 0
-105 -167 0
-100 -167 0
-101 -166 0
-103 -166 0
-103 -163 0
-107 -165 0
-101 -170 0
-101 -163 0
-107 -163 0
-106 -171 0
-100 -165 0
-105 -170 0
-106 -163 0
-104 -165 0
-103 -165 0
-108 -163 0
-104 -169 0
-106 -168 0
-105 -169 0
-108 -166 0
-107 -166 0
-101 -164 0
-104 -166 0
-101 -171 0
-110 -122 0
-110 -120 0
-111 -121 0
-109 -120 0
-113 -122 0
-114 -125 0
-113 -119 0
-114 -120 0
-112 -121 0
-117 -123 0
-112 -119 0
-115 -121 0
-117 -119 0
-110 -126 0
-111 -125 0
-114 -123 0
-116 -118 0
-117 -125 0
-113 -124 0
-114 -124 0
-111 -124 0
-117 -124 0
-116 -125 0
-113 -120 0
-112 -124 0
-114 -122 0
-115 -124 0
-112 -125 0
-115 -119 0
-112 -120 0
-116 -124 0
-112 -122 0
-109 -122 0
-109 -121 0
-110 -118 0
-113 -118 0
-111 -122 0
-110 -124 0
-117 -118 0
-114 -121 0
-114 -144 0
-109 -144 0
-115 -143 0
-110 -143 0
-110 -142 0
-116 -142 0
-113 -142 0
-113 -141 0
-112 -138 0
-109 -139 0
-112 -141 0
-114 -140 0
-109 -143 0
-110 -137 0
-113 -140 0
-111 -143 0
-111 -144 0
-110 -141 0
-111 -142 0
-113 -138 0
-110 -144 0
-112 -142 0
-109 -140 0
-116 -143 0
-110 -139 0
-112 -140 0
-114 -139 0
-111 -136 0
-116 -139 0
-112 -144 0
-109 -138 0
-117 -137 0
-116 -144 0
-113 -137 0
-111 -141 0
-114 -141 0
-110 -140 0
-117 -138 0
-114 -137 0
-116 -137 0
-112 -174 0
-115 -173 0
-116 -180 0
-116 -178 0
-114 -180 0
-117 -177 0
-116 -176 0
-115 -180 0
-117 -178 0
-111 -174 0
-114 -174 0
-116 -179 0
-115 -172 0
-115 -178 0
-112 -180 0
-111 -175 0
-113 -175 0
-117 -174 0
-112 -173 0
-116 -174 0
-117 -176 0
-110 -178 0
-114 -178 0
-111 -172 0
-114 -176 0
-116 -175 0
-109 -173 0
-113 -174 0
-112 -176 0
-110 -173 0
-112 -178 0
-109 -178 0
-109 -175 0
-115 -175 0
-111 -176 0
-113 -172 0
-110 -175 0
-114 -179 0
-117 -175 0
-115 -177 0
-112 -228 0
-112 -227 0
-113 -232 0
-114 -228 0
-113 -229 0
-110 -232 0
-115 -228 0
-109 -230 0
-111 -228 0
-110 -233 0
-115 -229 0
-117 -228 0
-117 -231 0
-110 -230 0
-111 -229 0
-117 -232 0
-117 -229 0
-110 -228 0
-113 -227 0
-116 -231 0
-110 -227 0
-115 -227 0
-110 -231 0
-114 -230 0
-109 -234 0
-115 -231 0
-111 -233 0
-111 -227 0
-110 -234 0
-112 -233 0
-117 -230 0
-113 -226 0
-113 -230 0
-113 -231 0
-114 -229 0
-113 -234 0
-109 -228 0
-115 -230 0
-109 -226 0
-109 -229 0
-113 -259 0
-116 -259 0
-117 -254 0
-113 -256 0
-117 -260 0
-115 -260 0
-114 -253 0
-112 -260 0
-111 -259 0
-116 -261 0
-114 -260 0
-111 -257 0
-115 -254 0
-111 -254 0
-115 -258 0
-112 -258 0
-109 -255 0
-110 -256 0
-109 -257 0
-109 -253 0
-114 -259 0
-116 -257 0
-114 -255 0
-115 -253 0
-112 -261 0
-114 -261 0
-110 -253 0
-115 -259 0
-109 -261 0
-110 -258 0
-112 -255 0
-112 -259 0
-113 -254 0
-111 -256 0
-110 -254 0
-116 -256 0
-110 -257 0
-112 -254 0
-116 -258 0
-109 -258 0
-126 -250 0
-125 -245 0
-126 -247 0
-121 -247 0
-120 -251 0
-124 -249 0
-125 -244 0
-119 -252 0
-122 -244 0
-121 -246 0
-121 -245 0
-120 -250 0
-126 -249 0
-124 -250 0
-122 -245 0
-120 -248 0
-119 -245 0
-122 -246 0
-123 -245 0
-118 -248 0
-119 -248 0
-121 -250 0
-125 -249 0
-123 -249 0
-120 -245 0
-122 -247 0
-123 -251 0
-118 -244 0
-121 -249 0
-123 -244 0
-125 -251 0
-120 -252 0
-118 -251 0
-122 -249 0
-121 -251 0
-125 -250 0
-124 -246 0
-122 -250 0
-119 -251 0
-119 -244 0
-130 -219 0
-135 -224 0
-134 -223 0
-130 -224 0
-135 -221 0
-135 -218 0
-131 -224 0
-133 -222 0
-127 -224 0
-134 -220 0
-131 -222 0
-132 -224 0
-132 -218 0
-131 -219 0
-129 -221 0
-128 -225 0
-135 -225 0
-128 -224 0
-129 -223 0
-133 -223 0
-134 -225 0
-133 -225 0
-132 -217 0
-128 -222 0
-127 -219 0
-134 -218 0
-128 -219 0
-127 -222 0
-129 -218 0
-129 -224 0
-127 -221 0
-130 -221 0
-127 -225 0
-133 -221 0
-131 -217 0
-128 -217 0
-132 -225 0
-132 -221 0
-127 -217 0
-135 -223 0
-138 -216 0
-138 -213 0
-144 -214 0
-139 -215 0
-144 -212 0
-141 -213 0
-136 -210 0
-139 -216 0
-137 -216 0
-141 -215 0
-144 -215 0
-143 -208 0
-141 -208 0
-144 -209 0
-143 -210 0
-142 -216 0
-142 -211 0
-136 -212 0
-140 -212 0
-140 -215 0
-136 -211 0
-139 -208 0
-136 -213 0
-140 -209 0
-137 -213 0
-144 -208 0
-138 -211 0
-140 -208 0
-141 -212 0
-137 -211 0
-136 -214 0
-141 -210 0
-138 -210 0
-144 -210 0
-141 -216 0
-137 -215 0
-142 -209 0
-137 -210 0
-138 -215 0
-141 -214 0
-158 -248 0
-159 -251 0
-157 -245 0
-162 -248 0
-154 -252 0
-161 -248 0
-160 -247 0
-160 -245 0
-157 -247 0
-160 -250 0
-157 -246 0
-158 -244 0
-156 -248 0
-161 -244 0
-155 -245 0
-162 -252 0
-155 -250 0
-154 -245 0
-155 -249 0
-156 -245 0
-159 -247 0
-158 -249 0
-154 -251 0
-155 -251 0
-155 -247 0
-159 -244 0
-156 -252 0
-159 -248 0
-158 -245 0
-160 -252 0
-161 -245 0
-159 -245 0
-160 -246 0
-155 -244 0
-162 -245 0
-157 -252 0
-154 -249 0
-158 -252 0
-157 -250 0
-161 -246 0
-184 -258 0
-184 -253 0
-184 -255 0
-182 -261 0
-186 -259 0
-184 -257 0
-189 -256 0
-189 -258 0
-181 -253 0
-186 -258 0
-181 -257 0
-188 -256 0
-186 -256 0
-185 -255 0
-183 -261 0
-188 -257 0
-189 -255 0
-184 -259 0
-182 -257 0
-181 -255 0
-189 -261 0
-187 -257 0
-187 -256 0
-184 -261 0
-183 -260 0
-186 -260 0
-183 -259 0
-182 -260 0
-182 -254 0
-183 -258 0
-188 -254 0
-184 -254 0
-183 -256 0
-189 -260 0
-187 -260 0
-188 -258 0
-185 -257 0
-187 -259 0
-189 -257 0
-181 -261 0
-189 -264 0
-185 -263 0
-184 -264 0
-183 -266 0
-188 -265 0
-182 -263 0
-181 -268 0
-185 -267 0
-181 -267 0
-187 -268 0
-187 -269 0
-181 -264 0
-182 -266 0
-181 -269 0
-186 -262 0
-187 -270 0
-181 -270 0
-188 -268 0
-183 -270 0
-189 -268 0
-183 -269 0
-185 -268 0
-189 -267 0
-181 -263 0
-184 -263 0
-182 -265 0
-184 -270 0
-184 -268 0
-183 -263 0
-189 -265 0
-186 -267 0
-188 -262 0
-188 -270 0
-182 -267 0
-183 -262 0
-189 -263 0
-184 -266 0
-185 -266 0
-183 -268 0
-187 -264 0
-198 -266 0
-195 -264 0
-198 -262 0
-193 -269 0
-193 -264 0
-197 -263 0
-192 -262 0
-192 -270 0
-195 -263 0
-190 -265 0
-195 -262 0
-190 -266 0
-191 -266 0
-192 -263 0
-191 -262 0
-195 -270 0
-198 -268 0
-194 -270 0
-196 -267 0
-194 -262 0
-191 -267 0
-196 -268 0
-198 -269 0
-196 -262 0
-191 -268 0
-190 -268 0
-197 -265 0
-197 -264 0
-193 -266 0
-196 -264 0
-191 -263 0
-197 -269 0
-197 -268 0
-191 -270 0
-192 -266 0
-192 -269 0
-197 -267 0
-194 -263 0
-196 -265 0
-194 -266 0
-199 -224 0
-206 -223 0
-201 -222 0
-204 -219 0
-202 -224 0
-206 -217 0
-204 -218 0
-203 -223 0
-203 -219 0
-204 -217 0
-206 -224 0
-201 -220 0
-201 -223 0
-200 -224 0
-202 -220 0
-202 -217 0
-201 -218 0
-207 -219 0
-200 -225 0
-207 -218 0
-201 -221 0
-200 -222 0
-204 -224 0
-207 -220 0
-204 -225 0
-199 -223 0
-207 -217 0
-204 -223 0
-201 -217 0
-200 -223 0
-202 -222 0
-203 -217 0
-200 -218 0
-207 -222 0
-199 -217 0
-205 -217 0
-206 -220 0
-200 -217 0
-207 -225 0
-202 -225 0
-213 -223 0
-214 -225 0
-210 -225 0
-214 -224 0
-215 -224 0
-210 -217 0
-210 -224 0
-216 -219 0
-215 -219 0
-209 -217 0
-212 -223 0
-215 -222 0
-216 -224 0
-210 -223 0
-213 -224 0
-213 -220 0
-215 -225 0
-213 -219 0
-209 -219 0
-208 -220 0
-211 -219 0
-208 -217 0
-213 -225 0
-216 -221 0
-215 -223 0
-212 -225 0
-211 -223 0
-208 -222 0
-215 -221 0
-210 -220 0
-210 -219 0
-209 -218 0
-208 -223 0
-210 -218 0
-211 -221 0
-213 -217 0
-214 -221 0
-211 -218 0
-209 -221 0
-215 -218 0
-219 -255 0
-222 -255 0
-218 -256 0
-221 -258 0
-218 -260 0
-217 -261 0
-224 -258 0
-225 -260 0
-223 -254 0
-218 -257 0
-221 -261 0
-221 -254 0
-218 -254 0
-217 -257 0
-225 -254 0
-219 -253 0
-220 -260 0
-220 -255 0
-224 -255 0
-221 -253 0
-221 -256 0
-220 -254 0
-222 -253 0
-222 -258 0
-225 -258 0
-219 -260 0
-223 -261 0
-225 -256 0
-217 -255 0
-218 -258 0
-225 -255 0
-218 -255 0
-225 -261 0
-223 -259 0
-219 -259 0
-223 -258 0
-222 -260 0
-224 -261 0
-224 -260 0
-220 -257 0
